c A SAT instance generated from a 3-CNF formula that had 300 clauses and 100 variables
p cnf 100 300
11 15 16 0
11 15 -16 0
11 -15 16 0
11 -15 -16 0
-14 1 6 0
14 -1 6 0
14 1 -6 0
14 -1 -6 0
-13 5 14 0
13 -5 14 0
13 5 -14 0
13 -5 -14 0
12 2 13 0
-12 -2 13 0
12 2 -13 0
12 -2 -13 0
11 9 12 0
-11 -9 12 0
11 9 -12 0
11 -9 -12 0
17 21 22 0
17 21 -22 0
17 -21 22 0
17 -21 -22 0
-20 5 7 0
20 -5 7 0
20 5 -7 0
20 -5 -7 0
-19 8 20 0
19 -8 20 0
19 8 -20 0
19 -8 -20 0
18 6 19 0
-18 -6 19 0
18 6 -19 0
18 -6 -19 0
-17 3 18 0
17 -3 18 0
17 3 -18 0
17 -3 -18 0
23 27 28 0
23 27 -28 0
23 -27 28 0
23 -27 -28 0
26 6 2 0
-26 -6 2 0
26 6 -2 0
26 -6 -2 0
-25 8 26 0
25 -8 26 0
25 8 -26 0
25 -8 -26 0
24 7 25 0
-24 -7 25 0
24 7 -25 0
24 -7 -25 0
-23 10 24 0
23 -10 24 0
23 10 -24 0
23 -10 -24 0
29 33 34 0
29 33 -34 0
29 -33 34 0
29 -33 -34 0
32 6 9 0
32 -6 9 0
-32 6 -9 0
32 -6 -9 0
31 8 32 0
-31 -8 32 0
31 8 -32 0
31 -8 -32 0
-30 3 31 0
30 -3 31 0
30 3 -31 0
30 -3 -31 0
29 7 30 0
-29 -7 30 0
29 7 -30 0
29 -7 -30 0
35 39 40 0
35 39 -40 0
35 -39 40 0
35 -39 -40 0
38 7 8 0
38 -7 8 0
-38 7 -8 0
38 -7 -8 0
37 9 38 0
-37 -9 38 0
37 9 -38 0
37 -9 -38 0
36 4 37 0
-36 -4 37 0
36 4 -37 0
36 -4 -37 0
35 3 36 0
-35 -3 36 0
35 3 -36 0
35 -3 -36 0
41 45 46 0
41 45 -46 0
41 -45 46 0
41 -45 -46 0
44 9 5 0
44 -9 5 0
44 9 -5 0
-44 -9 -5 0
43 6 44 0
-43 -6 44 0
43 6 -44 0
43 -6 -44 0
-42 4 43 0
42 -4 43 0
42 4 -43 0
42 -4 -43 0
-41 7 42 0
41 -7 42 0
41 7 -42 0
41 -7 -42 0
47 51 52 0
47 51 -52 0
47 -51 52 0
47 -51 -52 0
50 7 8 0
-50 -7 8 0
50 7 -8 0
50 -7 -8 0
49 10 50 0
-49 -10 50 0
49 10 -50 0
49 -10 -50 0
-48 6 49 0
48 -6 49 0
48 6 -49 0
48 -6 -49 0
47 9 48 0
-47 -9 48 0
47 9 -48 0
47 -9 -48 0
53 57 58 0
53 57 -58 0
53 -57 58 0
53 -57 -58 0
56 7 8 0
56 -7 8 0
-56 7 -8 0
56 -7 -8 0
55 10 56 0
-55 -10 56 0
55 10 -56 0
55 -10 -56 0
54 2 55 0
-54 -2 55 0
54 2 -55 0
54 -2 -55 0
-53 4 54 0
53 -4 54 0
53 4 -54 0
53 -4 -54 0
59 63 64 0
59 63 -64 0
59 -63 64 0
59 -63 -64 0
62 10 1 0
62 -10 1 0
-62 10 -1 0
62 -10 -1 0
-61 7 62 0
61 -7 62 0
61 7 -62 0
61 -7 -62 0
-60 6 61 0
60 -6 61 0
60 6 -61 0
60 -6 -61 0
-59 5 60 0
59 -5 60 0
59 5 -60 0
59 -5 -60 0
65 69 70 0
65 69 -70 0
65 -69 70 0
65 -69 -70 0
-68 10 3 0
68 -10 3 0
68 10 -3 0
68 -10 -3 0
-67 6 68 0
67 -6 68 0
67 6 -68 0
67 -6 -68 0
-66 1 67 0
66 -1 67 0
66 1 -67 0
66 -1 -67 0
-65 5 66 0
65 -5 66 0
65 5 -66 0
65 -5 -66 0
71 75 76 0
71 75 -76 0
71 -75 76 0
71 -75 -76 0
-74 4 5 0
74 -4 5 0
74 4 -5 0
74 -4 -5 0
-73 10 74 0
73 -10 74 0
73 10 -74 0
73 -10 -74 0
-72 7 73 0
72 -7 73 0
72 7 -73 0
72 -7 -73 0
71 1 72 0
-71 -1 72 0
71 1 -72 0
71 -1 -72 0
77 81 82 0
77 81 -82 0
77 -81 82 0
77 -81 -82 0
-80 3 5 0
80 -3 5 0
80 3 -5 0
80 -3 -5 0
-79 8 80 0
79 -8 80 0
79 8 -80 0
79 -8 -80 0
-78 1 79 0
78 -1 79 0
78 1 -79 0
78 -1 -79 0
77 7 78 0
-77 -7 78 0
77 7 -78 0
77 -7 -78 0
83 87 88 0
83 87 -88 0
83 -87 88 0
83 -87 -88 0
86 5 3 0
86 -5 3 0
-86 5 -3 0
86 -5 -3 0
-85 7 86 0
85 -7 86 0
85 7 -86 0
85 -7 -86 0
84 4 85 0
-84 -4 85 0
84 4 -85 0
84 -4 -85 0
83 2 84 0
-83 -2 84 0
83 2 -84 0
83 -2 -84 0
89 93 94 0
89 93 -94 0
89 -93 94 0
89 -93 -94 0
92 7 9 0
92 -7 9 0
92 7 -9 0
-92 -7 -9 0
-91 4 92 0
91 -4 92 0
91 4 -92 0
91 -4 -92 0
-90 1 91 0
90 -1 91 0
90 1 -91 0
90 -1 -91 0
89 6 90 0
-89 -6 90 0
89 6 -90 0
89 -6 -90 0
95 99 100 0
95 99 -100 0
95 -99 100 0
95 -99 -100 0
98 3 5 0
98 -3 5 0
-98 3 -5 0
98 -3 -5 0
-97 9 98 0
97 -9 98 0
97 9 -98 0
97 -9 -98 0
-96 1 97 0
96 -1 97 0
96 1 -97 0
96 -1 -97 0
95 2 96 0
-95 -2 96 0
95 2 -96 0
95 -2 -96 0
